data/ILP/exact/instance029.lp
Minimize
obj: 13y_1 + 5y_2 + 5y_3 + 5y_4 + 13y_5 + 5y_6 + 13y_7 + 5y_8 + 5y_9 + 13y_10 + 5y_11 + 13y_12 + 5y_13 + 5y_14 + 13y_15 + 5y_16 + 5y_17 + 13y_18 + 5y_19 + 5y_20 + 5y_21 + 5y_22 + 5y_23 + 13y_24 + 5y_25 + 5y_26 + 13y_27 + 5y_28 + 5y_29 + 13y_30 + 5y_31 + 5y_32 + 5y_33 + 5y_34 + 13y_35 + 5y_36 + 13y_37 + 5y_38 + 5y_39 + 5y_40 + 13y_41 + 5y_42 + 5y_43 + 13y_44 + 5y_45 + 5y_46 + 5y_47 + 13y_48 + 5y_49 + 13y_50 + 5y_51 + 13y_52 + 5y_53 + 5y_54 + 5y_55 + 5y_56 + 5y_57 + 5y_58 + 5y_59 + 5y_60 + 13y_61 + 5y_62 + 5y_63 + 13y_64 + 5y_65 + 13y_66 + 13y_67 + 13y_68 + 5y_69 + 13y_70 + 13y_71 + 5y_72 + 5y_73 + 13y_74 + 13y_75 + 5y_76 + 5y_77 + 13y_78 + 5y_79 + 13y_80 + 5y_81 + 13y_82 + 5y_83 + 13y_84 + 5y_85 + 13y_86 + 13y_87 + 5y_88 + 5y_89 + 13y_90 + 5y_91 + 5y_92 + 13y_93 + 5y_94 + 5y_95 + 13y_96 + 13y_97 + 5y_98 + 5y_99 + 13y_100 + 13y_101 + 5y_102 + 13y_103 + 5y_104 + 5y_105 + 13y_106 + 13y_107 + 5y_108 + 5y_109 + 5y_110 + 13y_111 + 5y_112 + 13y_113 + 5y_114 + 13y_115 + 13y_116 + 13y_117 + 5y_118 + 5y_119 + 5y_120 + 13y_121 + 5y_122 + 13y_123 + 5y_124 + 5y_125 + 13y_126 + 13y_127 + 5y_128 + 5y_129 + 13y_130 + 13y_131 + 5y_132 + 5y_133 + 13y_134 + 13y_135 + 5y_136 + 13y_137 + 5y_138 + 13y_139 + 5y_140 + 5y_141 + 5y_142 + 5y_143 + 13y_144 + 5y_145 + 5y_146 + 13y_147 + 13y_148 + 5y_149 + 5y_150 + 13y_151 + 13y_152 + 13y_153 + 5y_154 + 13y_155 + 13y_156 + 5y_157 + 13y_158 + 13y_159 + 5y_160 + 5y_161 + 13y_162 + 13y_163 + 5y_164 + 5y_165 + 13y_166 + 13y_167 + 5y_168 + 5y_169 + 13y_170 + 5y_171 + 13y_172 + 5y_173 + 5y_174 + 5y_175 + 13y_176 + 5y_177 + 5y_178 + 13y_179 + 13y_180 + 5y_181 + 13y_182 + 5y_183 + 13y_184 + 5y_185 + 13y_186 + 5y_187 + 5y_188 + 5y_189 + 13y_190 + 13y_191 + 5y_192 + 13y_193 + 13y_194 + 5y_195 + 5y_196 + 13y_197 + 5y_198 + 5y_199 + 13y_200 + 5y_201 + 13y_202 + 13y_203 + 5y_204 + 5y_205 + 13y_206 + 5y_207 + 5y_208 + 13y_209 + 5y_210 + 5y_211 + 13y_212 + 5y_213 + 13y_214 + 13y_215 + 13y_216 + 5y_217 + 13y_218 + 13y_219 + 5y_220 + 13y_221 + 13y_222 + 13y_223 + 5y_224 + 13y_225 + 5y_226 + 5y_227 + 13y_228 + 13y_229 + 13y_230 + 5y_231 + 13y_232 + 5y_233 + 13y_234 + 13y_235 + 5y_236 + 5y_237 + 13y_238 + 5y_239 + 5y_240 + 13y_241 + 13y_242 + 5y_243 + 13y_244 + 5y_245 + 13y_246 + 13y_247 + 5y_248 + 5y_249 + 13y_250 + 5y_251 + 5y_252 + 13y_253 + 5y_254 + 13y_255 + 13y_256 + 13y_257 + 5y_258 + 13y_259 + 5y_260 + 13y_261 + 5y_262 + 5y_263 + 13y_264 + 5y_265 + 13y_266 + 5y_267 + 5y_268 + 13y_269 + 5y_270 + 5y_271 + 13y_272 + 13y_273 + 5y_274 + 13y_275 + 5y_276 + 13y_277 + 13y_278 + 5y_279 + 13y_280 + 13y_281 + 13y_282 + 5y_283 + 13y_284 + 5y_285 + 5y_286 + 13y_287 + 13y_288 + 5y_289 + 5y_290 + 13y_291 + 5y_292 + 13y_293 + 13y_294 + 5y_295 + 5y_296 + 5y_297 + 13y_298 + 5y_299 + 13y_300 + 13y_301 + 13y_302 + 13y_303 + 5y_304 + 5y_305 + 13y_306 + 5y_307 + 13y_308 + 5y_309 + 13y_310 + 5y_311 + 13y_312 + 5y_313 + 5y_314 + 13y_315 + 13y_316 + 5y_317 + 5y_318 + 13y_319 + 5y_320 + 5y_321 + 13y_322 + 13y_323 + 5y_324 + 13y_325 + 5y_326 + 13y_327 + 13y_328 + 13y_329 + 5y_330 + 5y_331 + 5y_332 + 5y_333 + 13y_334 + 13y_335 + 5y_336 + 5y_337 + 13y_338 + 13y_339 + 5y_340 + 5y_341 + 13y_342 + 13y_343 + 5y_344 + 5y_345 + 13y_346 + 13y_347 + 5y_348 + 13y_349 + 13y_350 + 5y_351 + 5y_352 + 13y_353 + 5y_354 + 5y_355 + 5y_356 + 13y_357 + 13y_358 + 13y_359 + 13y_360 + 5y_361 + 5y_362 + 5y_363 + 5y_364 + 13y_365 + 13y_366 + 13y_367 + 5y_368 + 5y_369 + 13y_370 + 13y_371 + 5y_372 + 5y_373 + 13y_374 + 5y_375 + 13y_376 + 13y_377 + 5y_378 + 13y_379 + 5y_380 + 5y_381 + 13y_382 + 5y_383 + 13y_384 + 5y_385 + 13y_386 + 13y_387 + 13y_388 + 5y_389 + 5y_390 + 13y_391 + 13y_392 + 5y_393 + 5y_394 + 13y_395 + 5y_396 + 5y_397 + 13y_398 + 13y_399 + 5y_400 + 5y_401 + 5y_402 + 5y_403 + 13y_404 + 5y_405 + 5y_406 + 13y_407 + 13y_408 + 13y_409 + 5y_410 + 5y_411 + 13y_412 + 5y_413 + 13y_414 + 13y_415 + 13y_416 + 5y_417 + 5y_418 + 13y_419 + 5y_420 + 13y_421 + 5y_422 + 5y_423 + 13y_424 + 5y_425 + 13y_426 + 5y_427 + 13y_428 + 13y_429 + 5y_430 + 5y_431 + 13y_432 + 13y_433 + 5y_434 + 5y_435 + 5y_436 + 5y_437 + 13y_438 + 13y_439 + 5y_440 + 5y_441 + 13y_442 + 13y_443 + 5y_444 + 5y_445 + 13y_446 + 5y_447 + 5y_448 + 13y_449 + 13y_450 + 13y_451 + 5y_452 + 13y_453 + 5y_454 + 13y_455 + 13y_456 + 5y_457 + 13y_458 + 5y_459 + 13y_460 + 5y_461 + 5y_462 + 13y_463 + 13y_464 + 5y_465 + 5y_466 + 13y_467 + 13y_468 + 13y_469 + 5y_470 + 5y_471 + 5y_472 + 13y_473 + 13y_474 + 5y_475 + 13y_476 + 5y_477 + 5y_478 + 13y_479 + 5y_480 + 13y_481 + 13y_482 + 13y_483 + 5y_484 + 13y_485 + 5y_486 + 5y_487 + 13y_488 + 13y_489 + 13y_490 + 5y_491 + 13y_492 + 5y_493 + 13y_494 + 5y_495 + 13y_496 + 5y_497 + 13y_498 + 5y_499 + 13y_500 + 5y_501 + 13y_502 + 5y_503 + 5y_504 + 5y_505 + 13y_506 + 13y_507 + 5y_508 + 13y_509 + 5y_510 + 5y_511 + 13y_512 + 5y_513 + 5y_514 + 13y_515 + 13y_516 + 5y_517 + 13y_518 + 5y_519 + 13y_520 + 13y_521 + 5y_522 + 5y_523 + 13y_524 + 5y_525 + 5y_526 + 13y_527 + 13y_528 + 13y_529 + 5y_530 + 5y_531 + 5y_532 + 13y_533 + 13y_534 + 13y_535 + 5y_536 + 13y_537 + 5y_538 + 5y_539 + 5y_540 + 13y_541 + 13y_542 + 13y_543 + 13y_544 + 5y_545 + 5y_546 + 5y_547 + 13y_548 + 5y_549 + 5y_550 + 13y_551 + 5y_552 + 5y_553 + 5y_554 + 5y_555 + 13y_556 + 5y_557 + 5y_558 + 5y_559 + 13y_560 + 5y_561 + 5y_562 + 5y_563 + 5y_564 + 13y_565 + 5y_566 + 5y_567 + 13y_568 + 5y_569 + 5y_570 + 5y_571 + 13y_572 + 5y_573 + 5y_574 + 13y_575 + 13y_576 + 5y_577 + 5y_578 + 5y_579 + 13y_580 + 5y_581 + 13y_582 + 5y_583 + 5y_584 + 13y_585 + 5y_586
Subject To
x_587 = 9
x_592 = 1
x_593 = 1
x_594 = 1
x_595 = 1
x_596 = 1
x_588 = 1
x_589 = 1
x_590 = 1
x_591 = 1
x_1 - 10y_1 <= 0
x_2 - 10y_2 <= 0
x_3 - 10y_3 <= 0
x_4 - 10y_4 <= 0
x_5 - 10y_5 <= 0
x_6 - 10y_6 <= 0
x_7 - 10y_7 <= 0
x_8 - 10y_8 <= 0
x_9 - 10y_9 <= 0
x_10 - 10y_10 <= 0
x_11 - 10y_11 <= 0
x_12 - 10y_12 <= 0
x_13 - 10y_13 <= 0
x_14 - 10y_14 <= 0
x_15 - 10y_15 <= 0
x_16 - 10y_16 <= 0
x_17 - 10y_17 <= 0
x_18 - 10y_18 <= 0
x_19 - 10y_19 <= 0
x_20 - 10y_20 <= 0
x_21 - 10y_21 <= 0
x_22 - 10y_22 <= 0
x_23 - 10y_23 <= 0
x_24 - 10y_24 <= 0
x_25 - 10y_25 <= 0
x_26 - 10y_26 <= 0
x_27 - 10y_27 <= 0
x_28 - 10y_28 <= 0
x_29 - 10y_29 <= 0
x_30 - 10y_30 <= 0
x_31 - 10y_31 <= 0
x_32 - 10y_32 <= 0
x_33 - 10y_33 <= 0
x_34 - 10y_34 <= 0
x_35 - 10y_35 <= 0
x_36 - 10y_36 <= 0
x_37 - 10y_37 <= 0
x_38 - 10y_38 <= 0
x_39 - 10y_39 <= 0
x_40 - 10y_40 <= 0
x_41 - 10y_41 <= 0
x_42 - 10y_42 <= 0
x_43 - 10y_43 <= 0
x_44 - 10y_44 <= 0
x_45 - 10y_45 <= 0
x_46 - 10y_46 <= 0
x_47 - 10y_47 <= 0
x_48 - 10y_48 <= 0
x_49 - 10y_49 <= 0
x_50 - 10y_50 <= 0
x_51 - 10y_51 <= 0
x_52 - 10y_52 <= 0
x_53 - 10y_53 <= 0
x_54 - 10y_54 <= 0
x_55 - 10y_55 <= 0
x_56 - 10y_56 <= 0
x_57 - 10y_57 <= 0
x_58 - 10y_58 <= 0
x_59 - 10y_59 <= 0
x_60 - 10y_60 <= 0
x_61 - 10y_61 <= 0
x_62 - 10y_62 <= 0
x_63 - 10y_63 <= 0
x_64 - 10y_64 <= 0
x_65 - 10y_65 <= 0
x_66 - 10y_66 <= 0
x_67 - 10y_67 <= 0
x_68 - 10y_68 <= 0
x_69 - 10y_69 <= 0
x_70 - 10y_70 <= 0
x_71 - 10y_71 <= 0
x_72 - 10y_72 <= 0
x_73 - 10y_73 <= 0
x_74 - 10y_74 <= 0
x_75 - 10y_75 <= 0
x_76 - 10y_76 <= 0
x_77 - 10y_77 <= 0
x_78 - 10y_78 <= 0
x_79 - 10y_79 <= 0
x_80 - 10y_80 <= 0
x_81 - 10y_81 <= 0
x_82 - 10y_82 <= 0
x_83 - 10y_83 <= 0
x_84 - 10y_84 <= 0
x_85 - 10y_85 <= 0
x_86 - 10y_86 <= 0
x_87 - 10y_87 <= 0
x_88 - 10y_88 <= 0
x_89 - 10y_89 <= 0
x_90 - 10y_90 <= 0
x_91 - 10y_91 <= 0
x_92 - 10y_92 <= 0
x_93 - 10y_93 <= 0
x_94 - 10y_94 <= 0
x_95 - 10y_95 <= 0
x_96 - 10y_96 <= 0
x_97 - 10y_97 <= 0
x_98 - 10y_98 <= 0
x_99 - 10y_99 <= 0
x_100 - 10y_100 <= 0
x_101 - 10y_101 <= 0
x_102 - 10y_102 <= 0
x_103 - 10y_103 <= 0
x_104 - 10y_104 <= 0
x_105 - 10y_105 <= 0
x_106 - 10y_106 <= 0
x_107 - 10y_107 <= 0
x_108 - 10y_108 <= 0
x_109 - 10y_109 <= 0
x_110 - 10y_110 <= 0
x_111 - 10y_111 <= 0
x_112 - 10y_112 <= 0
x_113 - 10y_113 <= 0
x_114 - 10y_114 <= 0
x_115 - 10y_115 <= 0
x_116 - 10y_116 <= 0
x_117 - 10y_117 <= 0
x_118 - 10y_118 <= 0
x_119 - 10y_119 <= 0
x_120 - 10y_120 <= 0
x_121 - 10y_121 <= 0
x_122 - 10y_122 <= 0
x_123 - 10y_123 <= 0
x_124 - 10y_124 <= 0
x_125 - 10y_125 <= 0
x_126 - 10y_126 <= 0
x_127 - 10y_127 <= 0
x_128 - 10y_128 <= 0
x_129 - 10y_129 <= 0
x_130 - 10y_130 <= 0
x_131 - 10y_131 <= 0
x_132 - 10y_132 <= 0
x_133 - 10y_133 <= 0
x_134 - 10y_134 <= 0
x_135 - 10y_135 <= 0
x_136 - 10y_136 <= 0
x_137 - 10y_137 <= 0
x_138 - 10y_138 <= 0
x_139 - 10y_139 <= 0
x_140 - 10y_140 <= 0
x_141 - 10y_141 <= 0
x_142 - 10y_142 <= 0
x_143 - 10y_143 <= 0
x_144 - 10y_144 <= 0
x_145 - 10y_145 <= 0
x_146 - 10y_146 <= 0
x_147 - 10y_147 <= 0
x_148 - 10y_148 <= 0
x_149 - 10y_149 <= 0
x_150 - 10y_150 <= 0
x_151 - 10y_151 <= 0
x_152 - 10y_152 <= 0
x_153 - 10y_153 <= 0
x_154 - 10y_154 <= 0
x_155 - 10y_155 <= 0
x_156 - 10y_156 <= 0
x_157 - 10y_157 <= 0
x_158 - 10y_158 <= 0
x_159 - 10y_159 <= 0
x_160 - 10y_160 <= 0
x_161 - 10y_161 <= 0
x_162 - 10y_162 <= 0
x_163 - 10y_163 <= 0
x_164 - 10y_164 <= 0
x_165 - 10y_165 <= 0
x_166 - 10y_166 <= 0
x_167 - 10y_167 <= 0
x_168 - 10y_168 <= 0
x_169 - 10y_169 <= 0
x_170 - 10y_170 <= 0
x_171 - 10y_171 <= 0
x_172 - 10y_172 <= 0
x_173 - 10y_173 <= 0
x_174 - 10y_174 <= 0
x_175 - 10y_175 <= 0
x_176 - 10y_176 <= 0
x_177 - 10y_177 <= 0
x_178 - 10y_178 <= 0
x_179 - 10y_179 <= 0
x_180 - 10y_180 <= 0
x_181 - 10y_181 <= 0
x_182 - 10y_182 <= 0
x_183 - 10y_183 <= 0
x_184 - 10y_184 <= 0
x_185 - 10y_185 <= 0
x_186 - 10y_186 <= 0
x_187 - 10y_187 <= 0
x_188 - 10y_188 <= 0
x_189 - 10y_189 <= 0
x_190 - 10y_190 <= 0
x_191 - 10y_191 <= 0
x_192 - 10y_192 <= 0
x_193 - 10y_193 <= 0
x_194 - 10y_194 <= 0
x_195 - 10y_195 <= 0
x_196 - 10y_196 <= 0
x_197 - 10y_197 <= 0
x_198 - 10y_198 <= 0
x_199 - 10y_199 <= 0
x_200 - 10y_200 <= 0
x_201 - 10y_201 <= 0
x_202 - 10y_202 <= 0
x_203 - 10y_203 <= 0
x_204 - 10y_204 <= 0
x_205 - 10y_205 <= 0
x_206 - 10y_206 <= 0
x_207 - 10y_207 <= 0
x_208 - 10y_208 <= 0
x_209 - 10y_209 <= 0
x_210 - 10y_210 <= 0
x_211 - 10y_211 <= 0
x_212 - 10y_212 <= 0
x_213 - 10y_213 <= 0
x_214 - 10y_214 <= 0
x_215 - 10y_215 <= 0
x_216 - 10y_216 <= 0
x_217 - 10y_217 <= 0
x_218 - 10y_218 <= 0
x_219 - 10y_219 <= 0
x_220 - 10y_220 <= 0
x_221 - 10y_221 <= 0
x_222 - 10y_222 <= 0
x_223 - 10y_223 <= 0
x_224 - 10y_224 <= 0
x_225 - 10y_225 <= 0
x_226 - 10y_226 <= 0
x_227 - 10y_227 <= 0
x_228 - 10y_228 <= 0
x_229 - 10y_229 <= 0
x_230 - 10y_230 <= 0
x_231 - 10y_231 <= 0
x_232 - 10y_232 <= 0
x_233 - 10y_233 <= 0
x_234 - 10y_234 <= 0
x_235 - 10y_235 <= 0
x_236 - 10y_236 <= 0
x_237 - 10y_237 <= 0
x_238 - 10y_238 <= 0
x_239 - 10y_239 <= 0
x_240 - 10y_240 <= 0
x_241 - 10y_241 <= 0
x_242 - 10y_242 <= 0
x_243 - 10y_243 <= 0
x_244 - 10y_244 <= 0
x_245 - 10y_245 <= 0
x_246 - 10y_246 <= 0
x_247 - 10y_247 <= 0
x_248 - 10y_248 <= 0
x_249 - 10y_249 <= 0
x_250 - 10y_250 <= 0
x_251 - 10y_251 <= 0
x_252 - 10y_252 <= 0
x_253 - 10y_253 <= 0
x_254 - 10y_254 <= 0
x_255 - 10y_255 <= 0
x_256 - 10y_256 <= 0
x_257 - 10y_257 <= 0
x_258 - 10y_258 <= 0
x_259 - 10y_259 <= 0
x_260 - 10y_260 <= 0
x_261 - 10y_261 <= 0
x_262 - 10y_262 <= 0
x_263 - 10y_263 <= 0
x_264 - 10y_264 <= 0
x_265 - 10y_265 <= 0
x_266 - 10y_266 <= 0
x_267 - 10y_267 <= 0
x_268 - 10y_268 <= 0
x_269 - 10y_269 <= 0
x_270 - 10y_270 <= 0
x_271 - 10y_271 <= 0
x_272 - 10y_272 <= 0
x_273 - 10y_273 <= 0
x_274 - 10y_274 <= 0
x_275 - 10y_275 <= 0
x_276 - 10y_276 <= 0
x_277 - 10y_277 <= 0
x_278 - 10y_278 <= 0
x_279 - 10y_279 <= 0
x_280 - 10y_280 <= 0
x_281 - 10y_281 <= 0
x_282 - 10y_282 <= 0
x_283 - 10y_283 <= 0
x_284 - 10y_284 <= 0
x_285 - 10y_285 <= 0
x_286 - 10y_286 <= 0
x_287 - 10y_287 <= 0
x_288 - 10y_288 <= 0
x_289 - 10y_289 <= 0
x_290 - 10y_290 <= 0
x_291 - 10y_291 <= 0
x_292 - 10y_292 <= 0
x_293 - 10y_293 <= 0
x_294 - 10y_294 <= 0
x_295 - 10y_295 <= 0
x_296 - 10y_296 <= 0
x_297 - 10y_297 <= 0
x_298 - 10y_298 <= 0
x_299 - 10y_299 <= 0
x_300 - 10y_300 <= 0
x_301 - 10y_301 <= 0
x_302 - 10y_302 <= 0
x_303 - 10y_303 <= 0
x_304 - 10y_304 <= 0
x_305 - 10y_305 <= 0
x_306 - 10y_306 <= 0
x_307 - 10y_307 <= 0
x_308 - 10y_308 <= 0
x_309 - 10y_309 <= 0
x_310 - 10y_310 <= 0
x_311 - 10y_311 <= 0
x_312 - 10y_312 <= 0
x_313 - 10y_313 <= 0
x_314 - 10y_314 <= 0
x_315 - 10y_315 <= 0
x_316 - 10y_316 <= 0
x_317 - 10y_317 <= 0
x_318 - 10y_318 <= 0
x_319 - 10y_319 <= 0
x_320 - 10y_320 <= 0
x_321 - 10y_321 <= 0
x_322 - 10y_322 <= 0
x_323 - 10y_323 <= 0
x_324 - 10y_324 <= 0
x_325 - 10y_325 <= 0
x_326 - 10y_326 <= 0
x_327 - 10y_327 <= 0
x_328 - 10y_328 <= 0
x_329 - 10y_329 <= 0
x_330 - 10y_330 <= 0
x_331 - 10y_331 <= 0
x_332 - 10y_332 <= 0
x_333 - 10y_333 <= 0
x_334 - 10y_334 <= 0
x_335 - 10y_335 <= 0
x_336 - 10y_336 <= 0
x_337 - 10y_337 <= 0
x_338 - 10y_338 <= 0
x_339 - 10y_339 <= 0
x_340 - 10y_340 <= 0
x_341 - 10y_341 <= 0
x_342 - 10y_342 <= 0
x_343 - 10y_343 <= 0
x_344 - 10y_344 <= 0
x_345 - 10y_345 <= 0
x_346 - 10y_346 <= 0
x_347 - 10y_347 <= 0
x_348 - 10y_348 <= 0
x_349 - 10y_349 <= 0
x_350 - 10y_350 <= 0
x_351 - 10y_351 <= 0
x_352 - 10y_352 <= 0
x_353 - 10y_353 <= 0
x_354 - 10y_354 <= 0
x_355 - 10y_355 <= 0
x_356 - 10y_356 <= 0
x_357 - 10y_357 <= 0
x_358 - 10y_358 <= 0
x_359 - 10y_359 <= 0
x_360 - 10y_360 <= 0
x_361 - 10y_361 <= 0
x_362 - 10y_362 <= 0
x_363 - 10y_363 <= 0
x_364 - 10y_364 <= 0
x_365 - 10y_365 <= 0
x_366 - 10y_366 <= 0
x_367 - 10y_367 <= 0
x_368 - 10y_368 <= 0
x_369 - 10y_369 <= 0
x_370 - 10y_370 <= 0
x_371 - 10y_371 <= 0
x_372 - 10y_372 <= 0
x_373 - 10y_373 <= 0
x_374 - 10y_374 <= 0
x_375 - 10y_375 <= 0
x_376 - 10y_376 <= 0
x_377 - 10y_377 <= 0
x_378 - 10y_378 <= 0
x_379 - 10y_379 <= 0
x_380 - 10y_380 <= 0
x_381 - 10y_381 <= 0
x_382 - 10y_382 <= 0
x_383 - 10y_383 <= 0
x_384 - 10y_384 <= 0
x_385 - 10y_385 <= 0
x_386 - 10y_386 <= 0
x_387 - 10y_387 <= 0
x_388 - 10y_388 <= 0
x_389 - 10y_389 <= 0
x_390 - 10y_390 <= 0
x_391 - 10y_391 <= 0
x_392 - 10y_392 <= 0
x_393 - 10y_393 <= 0
x_394 - 10y_394 <= 0
x_395 - 10y_395 <= 0
x_396 - 10y_396 <= 0
x_397 - 10y_397 <= 0
x_398 - 10y_398 <= 0
x_399 - 10y_399 <= 0
x_400 - 10y_400 <= 0
x_401 - 10y_401 <= 0
x_402 - 10y_402 <= 0
x_403 - 10y_403 <= 0
x_404 - 10y_404 <= 0
x_405 - 10y_405 <= 0
x_406 - 10y_406 <= 0
x_407 - 10y_407 <= 0
x_408 - 10y_408 <= 0
x_409 - 10y_409 <= 0
x_410 - 10y_410 <= 0
x_411 - 10y_411 <= 0
x_412 - 10y_412 <= 0
x_413 - 10y_413 <= 0
x_414 - 10y_414 <= 0
x_415 - 10y_415 <= 0
x_416 - 10y_416 <= 0
x_417 - 10y_417 <= 0
x_418 - 10y_418 <= 0
x_419 - 10y_419 <= 0
x_420 - 10y_420 <= 0
x_421 - 10y_421 <= 0
x_422 - 10y_422 <= 0
x_423 - 10y_423 <= 0
x_424 - 10y_424 <= 0
x_425 - 10y_425 <= 0
x_426 - 10y_426 <= 0
x_427 - 10y_427 <= 0
x_428 - 10y_428 <= 0
x_429 - 10y_429 <= 0
x_430 - 10y_430 <= 0
x_431 - 10y_431 <= 0
x_432 - 10y_432 <= 0
x_433 - 10y_433 <= 0
x_434 - 10y_434 <= 0
x_435 - 10y_435 <= 0
x_436 - 10y_436 <= 0
x_437 - 10y_437 <= 0
x_438 - 10y_438 <= 0
x_439 - 10y_439 <= 0
x_440 - 10y_440 <= 0
x_441 - 10y_441 <= 0
x_442 - 10y_442 <= 0
x_443 - 10y_443 <= 0
x_444 - 10y_444 <= 0
x_445 - 10y_445 <= 0
x_446 - 10y_446 <= 0
x_447 - 10y_447 <= 0
x_448 - 10y_448 <= 0
x_449 - 10y_449 <= 0
x_450 - 10y_450 <= 0
x_451 - 10y_451 <= 0
x_452 - 10y_452 <= 0
x_453 - 10y_453 <= 0
x_454 - 10y_454 <= 0
x_455 - 10y_455 <= 0
x_456 - 10y_456 <= 0
x_457 - 10y_457 <= 0
x_458 - 10y_458 <= 0
x_459 - 10y_459 <= 0
x_460 - 10y_460 <= 0
x_461 - 10y_461 <= 0
x_462 - 10y_462 <= 0
x_463 - 10y_463 <= 0
x_464 - 10y_464 <= 0
x_465 - 10y_465 <= 0
x_466 - 10y_466 <= 0
x_467 - 10y_467 <= 0
x_468 - 10y_468 <= 0
x_469 - 10y_469 <= 0
x_470 - 10y_470 <= 0
x_471 - 10y_471 <= 0
x_472 - 10y_472 <= 0
x_473 - 10y_473 <= 0
x_474 - 10y_474 <= 0
x_475 - 10y_475 <= 0
x_476 - 10y_476 <= 0
x_477 - 10y_477 <= 0
x_478 - 10y_478 <= 0
x_479 - 10y_479 <= 0
x_480 - 10y_480 <= 0
x_481 - 10y_481 <= 0
x_482 - 10y_482 <= 0
x_483 - 10y_483 <= 0
x_484 - 10y_484 <= 0
x_485 - 10y_485 <= 0
x_486 - 10y_486 <= 0
x_487 - 10y_487 <= 0
x_488 - 10y_488 <= 0
x_489 - 10y_489 <= 0
x_490 - 10y_490 <= 0
x_491 - 10y_491 <= 0
x_492 - 10y_492 <= 0
x_493 - 10y_493 <= 0
x_494 - 10y_494 <= 0
x_495 - 10y_495 <= 0
x_496 - 10y_496 <= 0
x_497 - 10y_497 <= 0
x_498 - 10y_498 <= 0
x_499 - 10y_499 <= 0
x_500 - 10y_500 <= 0
x_501 - 10y_501 <= 0
x_502 - 10y_502 <= 0
x_503 - 10y_503 <= 0
x_504 - 10y_504 <= 0
x_505 - 10y_505 <= 0
x_506 - 10y_506 <= 0
x_507 - 10y_507 <= 0
x_508 - 10y_508 <= 0
x_509 - 10y_509 <= 0
x_510 - 10y_510 <= 0
x_511 - 10y_511 <= 0
x_512 - 10y_512 <= 0
x_513 - 10y_513 <= 0
x_514 - 10y_514 <= 0
x_515 - 10y_515 <= 0
x_516 - 10y_516 <= 0
x_517 - 10y_517 <= 0
x_518 - 10y_518 <= 0
x_519 - 10y_519 <= 0
x_520 - 10y_520 <= 0
x_521 - 10y_521 <= 0
x_522 - 10y_522 <= 0
x_523 - 10y_523 <= 0
x_524 - 10y_524 <= 0
x_525 - 10y_525 <= 0
x_526 - 10y_526 <= 0
x_527 - 10y_527 <= 0
x_528 - 10y_528 <= 0
x_529 - 10y_529 <= 0
x_530 - 10y_530 <= 0
x_531 - 10y_531 <= 0
x_532 - 10y_532 <= 0
x_533 - 10y_533 <= 0
x_534 - 10y_534 <= 0
x_535 - 10y_535 <= 0
x_536 - 10y_536 <= 0
x_537 - 10y_537 <= 0
x_538 - 10y_538 <= 0
x_539 - 10y_539 <= 0
x_540 - 10y_540 <= 0
x_541 - 10y_541 <= 0
x_542 - 10y_542 <= 0
x_543 - 10y_543 <= 0
x_544 - 10y_544 <= 0
x_545 - 10y_545 <= 0
x_546 - 10y_546 <= 0
x_547 - 10y_547 <= 0
x_548 - 10y_548 <= 0
x_549 - 10y_549 <= 0
x_550 - 10y_550 <= 0
x_551 - 10y_551 <= 0
x_552 - 10y_552 <= 0
x_553 - 10y_553 <= 0
x_554 - 10y_554 <= 0
x_555 - 10y_555 <= 0
x_556 - 10y_556 <= 0
x_557 - 10y_557 <= 0
x_558 - 10y_558 <= 0
x_559 - 10y_559 <= 0
x_560 - 10y_560 <= 0
x_561 - 10y_561 <= 0
x_562 - 10y_562 <= 0
x_563 - 10y_563 <= 0
x_564 - 10y_564 <= 0
x_565 - 10y_565 <= 0
x_566 - 10y_566 <= 0
x_567 - 10y_567 <= 0
x_568 - 10y_568 <= 0
x_569 - 10y_569 <= 0
x_570 - 10y_570 <= 0
x_571 - 10y_571 <= 0
x_572 - 10y_572 <= 0
x_573 - 10y_573 <= 0
x_574 - 10y_574 <= 0
x_575 - 10y_575 <= 0
x_576 - 10y_576 <= 0
x_577 - 10y_577 <= 0
x_578 - 10y_578 <= 0
x_579 - 10y_579 <= 0
x_580 - 10y_580 <= 0
x_581 - 10y_581 <= 0
x_582 - 10y_582 <= 0
x_583 - 10y_583 <= 0
x_584 - 10y_584 <= 0
x_585 - 10y_585 <= 0
x_586 - 10y_586 <= 0
x_1 - x_67 +  x_2 - x_4 = 0
x_3 - x_6 +  x_4 - x_2 +  x_5 - x_71 = 0
x_7 - x_75 +  x_8 - x_11 +  x_6 - x_3 = 0
x_9 - x_13 +  x_11 - x_8 +  x_10 - x_80 = 0
x_13 - x_9 +  x_14 - x_17 +  x_12 - x_82 = 0
x_15 - x_86 +  x_17 - x_14 +  x_16 - x_20 = 0
x_19 - x_21 +  x_18 - x_90 +  x_20 - x_16 = 0
x_21 - x_19 +  x_22 - x_25 = 0
x_24 - x_100 +  x_25 - x_22 +  x_23 - x_26 = 0
x_28 - x_31 +  x_27 - x_101 +  x_26 - x_23 = 0
x_30 - x_106 +  x_29 - x_32 +  x_31 - x_28 = 0
x_33 - x_34 +  x_32 - x_29 - x_593 = 0
x_34 - x_33 +  x_35 - x_115 +  x_36 - x_38 = 0
x_37 - x_116 +  x_39 - x_42 +  x_38 - x_36 = 0
x_42 - x_39 +  x_41 - x_123 +  x_40 - x_43 = 0
x_43 - x_40 +  x_45 - x_47 +  x_44 - x_126 = 0
x_46 - x_49 +  x_47 - x_45 +  x_48 - x_131 = 0
x_50 - x_134 +  x_51 - x_54 +  x_49 - x_46 = 0
x_52 - x_135 +  x_54 - x_51 +  x_53 - x_56 = 0
x_55 - x_57 +  x_56 - x_53 = 0
x_58 - x_60 +  x_57 - x_55 = 0
x_59 - x_62 +  x_60 - x_58 +  x_61 - x_147 = 0
x_63 - x_65 +  x_64 - x_148 +  x_62 - x_59 = 0
x_66 - x_153 +  x_65 - x_63 = 0
x_68 - x_155 +  x_67 - x_1 +  x_69 - x_72 = 0
x_73 - x_76 +  x_72 - x_69 +  x_71 - x_5 +  x_70 - x_159 = 0
x_74 - x_162 +  x_77 - x_81 +  x_76 - x_73 +  x_75 - x_7 = 0
x_79 - x_83 +  x_81 - x_77 +  x_80 - x_10 +  x_78 - x_166 = 0
x_82 - x_12 +  x_85 - x_89 +  x_83 - x_79 +  x_84 - x_172 = 0
x_88 - x_92 +  x_87 - x_176 +  x_86 - x_15 +  x_89 - x_85 = 0
x_90 - x_18 +  x_93 - x_180 +  x_91 - x_94 +  x_92 - x_88 = 0
x_95 - x_99 +  x_96 - x_182 +  x_94 - x_91 = 0
x_100 - x_24 +  x_97 - x_186 +  x_98 - x_102 +  x_99 - x_95 = 0
x_101 - x_27 +  x_103 - x_191 +  x_104 - x_108 +  x_102 - x_98 = 0
x_108 - x_104 +  x_105 - x_110 +  x_106 - x_30 +  x_107 - x_194 = 0
x_110 - x_105 +  x_111 - x_197 +  x_109 - x_112 = 0
x_112 - x_109 +  x_114 - x_119 +  x_115 - x_35 +  x_113 - x_200 = 0
x_119 - x_114 +  x_118 - x_122 +  x_117 - x_203 +  x_116 - x_37 = 0
x_120 - x_124 +  x_122 - x_118 +  x_123 - x_41 +  x_121 - x_206 = 0
x_126 - x_44 +  x_124 - x_120 +  x_125 - x_128 +  x_127 - x_212 = 0
x_128 - x_125 +  x_129 - x_132 +  x_131 - x_48 +  x_130 - x_214 = 0
x_132 - x_129 +  x_133 - x_136 +  x_134 - x_50 = 0
x_138 - x_140 +  x_137 - x_218 +  x_135 - x_52 +  x_136 - x_133 = 0
x_141 - x_143 +  x_139 - x_219 +  x_140 - x_138 = 0
x_142 - x_146 +  x_143 - x_141 = 0
x_144 - x_222 +  x_146 - x_142 +  x_145 - x_149 +  x_147 - x_61 = 0
x_148 - x_64 +  x_151 - x_228 +  x_149 - x_145 +  x_150 - x_154 = 0
x_153 - x_66 +  x_154 - x_150 +  x_152 - x_230 = 0
x_156 - x_234 +  x_157 - x_161 +  x_155 - x_68 = 0
x_161 - x_157 +  x_159 - x_70 +  x_160 - x_164 +  x_158 - x_235 = 0
x_164 - x_160 +  x_162 - x_74 +  x_163 - x_241 +  x_165 - x_169 = 0
x_169 - x_165 +  x_168 - x_173 +  x_166 - x_78 +  x_167 - x_244 = 0
x_173 - x_168 +  x_172 - x_84 +  x_171 - x_175 +  x_170 - x_247 = 0
x_175 - x_171 +  x_176 - x_87 +  x_174 - x_178 +  x_587 = 0
x_179 - x_255 +  x_178 - x_174 +  x_180 - x_93 +  x_177 - x_181 = 0
x_181 - x_177 +  x_182 - x_96 +  x_183 - x_187 = 0
x_186 - x_97 +  x_185 - x_188 +  x_184 - x_256 +  x_187 - x_183 = 0
-x_590 +  x_189 - x_192 +  x_188 - x_185 +  x_190 - x_261 +  x_191 - x_103 = 0
x_194 - x_107 +  x_195 - x_198 +  x_192 - x_189 +  x_193 - x_264 = 0
x_197 - x_111 +  x_196 - x_199 +  x_198 - x_195 - x_594 = 0
x_201 - x_205 +  x_199 - x_196 +  x_202 - x_273 +  x_200 - x_113 = 0
x_203 - x_117 +  x_205 - x_201 - x_596 +  x_204 - x_207 = 0
x_207 - x_204 +  x_209 - x_278 +  x_208 - x_211 +  x_206 - x_121 = 0
x_210 - x_213 +  x_212 - x_127 +  x_211 - x_208 = 0
x_213 - x_210 +  x_214 - x_130 +  x_215 - x_281 = 0
x_217 - x_220 +  x_218 - x_137 +  x_216 - x_282 = 0
x_220 - x_217 +  x_219 - x_139 +  x_221 - x_287 = 0
x_223 - x_294 +  x_224 - x_226 +  x_222 - x_144 = 0
x_225 - x_298 +  x_226 - x_224 +  x_228 - x_151 +  x_227 - x_231 = 0
x_231 - x_227 +  x_230 - x_152 +  x_229 - x_300 = 0
x_234 - x_156 +  x_232 - x_302 +  x_233 - x_237 = 0
x_237 - x_233 +  x_235 - x_158 +  x_238 - x_306 +  x_236 - x_239 = 0
x_241 - x_163 +  x_239 - x_236 +  x_240 - x_243 +  x_242 - x_310 = 0
x_243 - x_240 - x_591 +  x_245 - x_249 +  x_244 - x_167 = 0
x_248 - x_252 +  x_249 - x_245 +  x_246 - x_315 +  x_247 - x_170 = 0
x_251 - x_254 +  x_250 - x_319 +  x_252 - x_248 = 0
x_253 - x_322 +  x_255 - x_179 +  x_254 - x_251 = 0
x_256 - x_184 +  x_257 - x_325 +  x_258 - x_262 = 0
x_261 - x_190 +  x_262 - x_258 +  x_259 - x_328 +  x_260 - x_263 = 0
x_263 - x_260 +  x_266 - x_335 +  x_264 - x_193 +  x_265 - x_268 = 0
x_269 - x_338 +  x_268 - x_265 +  x_267 - x_270 = 0
x_271 - x_274 +  x_273 - x_202 +  x_270 - x_267 +  x_272 - x_342 = 0
x_275 - x_343 +  x_274 - x_271 +  x_276 - x_279 = 0
x_277 - x_347 +  x_279 - x_276 +  x_278 - x_209 = 0
x_280 - x_350 +  x_281 - x_215 = 0
x_282 - x_216 +  x_284 - x_358 +  x_283 - x_285 = 0
x_287 - x_221 +  x_288 - x_360 +  x_285 - x_283 +  x_286 - x_289 = 0
x_290 - x_295 +  x_289 - x_286 +  x_291 - x_365 = 0
x_295 - x_290 +  x_294 - x_223 +  x_292 - x_296 +  x_293 - x_367 = 0
-x_592 +  x_296 - x_292 +  x_297 - x_299 +  x_298 - x_225 = 0
x_300 - x_229 +  x_301 - x_376 +  x_299 - x_297 = 0
x_303 - x_377 +  x_304 - x_307 +  x_302 - x_232 = 0
x_305 - x_309 +  x_306 - x_238 +  x_307 - x_304 - x_595 = 0
x_310 - x_242 +  x_309 - x_305 +  x_311 - x_314 +  x_308 - x_384 = 0
x_313 - x_317 +  x_312 - x_388 +  x_314 - x_311 = 0
x_315 - x_246 +  x_317 - x_313 +  x_318 - x_320 +  x_316 - x_392 = 0
x_321 - x_324 +  x_320 - x_318 +  x_319 - x_250 = 0
x_324 - x_321 +  x_322 - x_253 +  x_323 - x_399 = 0
x_325 - x_257 +  x_326 - x_330 +  x_327 - x_407 = 0
x_328 - x_259 +  x_331 - x_333 +  x_330 - x_326 +  x_329 - x_409 = 0
x_332 - x_336 +  x_335 - x_266 +  x_334 - x_414 +  x_333 - x_331 = 0
x_336 - x_332 +  x_338 - x_269 +  x_337 - x_340 = 0
x_341 - x_344 +  x_339 - x_415 +  x_342 - x_272 +  x_340 - x_337 = 0
x_345 - x_348 +  x_343 - x_275 - x_588 +  x_344 - x_341 = 0
x_346 - x_421 +  x_347 - x_277 +  x_348 - x_345 = 0
x_350 - x_280 +  x_351 - x_354 +  x_349 - x_428 = 0
x_352 - x_355 +  x_353 - x_433 +  x_354 - x_351 = 0
x_358 - x_284 +  x_357 - x_438 +  x_355 - x_352 +  x_356 - x_361 = 0
x_359 - x_442 +  x_362 - x_363 +  x_361 - x_356 +  x_360 - x_288 = 0
x_365 - x_291 +  x_364 - x_368 +  x_363 - x_362 +  x_366 - x_446 = 0
x_369 - x_373 +  x_370 - x_450 +  x_368 - x_364 +  x_367 - x_293 = 0
x_372 - x_375 +  x_373 - x_369 +  x_371 - x_451 = 0
x_374 - x_455 +  x_376 - x_301 +  x_375 - x_372 = 0
x_377 - x_303 +  x_378 - x_380 +  x_379 - x_460 = 0
x_382 - x_464 +  x_381 - x_383 +  x_380 - x_378 = 0
x_383 - x_381 +  x_384 - x_308 +  x_386 - x_467 +  x_385 - x_390 = 0
x_388 - x_312 +  x_389 - x_393 +  x_390 - x_385 +  x_387 - x_469 = 0
x_392 - x_316 +  x_394 - x_396 +  x_393 - x_389 +  x_391 - x_473 = 0
x_397 - x_401 +  x_396 - x_394 +  x_395 - x_476 = 0
x_398 - x_479 +  x_400 - x_402 +  x_399 - x_323 +  x_401 - x_397 = 0
x_402 - x_400 +  x_403 - x_406 = 0
x_406 - x_403 +  x_407 - x_327 +  x_405 - x_410 +  x_404 - x_482 = 0
x_408 - x_485 +  x_411 - x_413 +  x_409 - x_329 +  x_410 - x_405 = 0
x_412 - x_489 +  x_414 - x_334 +  x_413 - x_411 = 0
x_416 - x_492 +  x_415 - x_339 +  x_417 - x_420 = 0
x_419 - x_496 +  x_420 - x_417 +  x_418 - x_423 = 0
x_421 - x_346 +  x_422 - x_425 +  x_423 - x_418 +  x_424 - x_500 = 0
x_425 - x_422 +  x_426 - x_502 +  x_427 - x_431 = 0
x_429 - x_506 +  x_430 - x_435 +  x_431 - x_427 +  x_428 - x_349 = 0
x_432 - x_509 +  x_434 - x_437 +  x_435 - x_430 +  x_433 - x_353 = 0
x_439 - x_516 +  x_437 - x_434 +  x_438 - x_357 +  x_436 - x_440 = 0
x_442 - x_359 +  x_441 - x_445 +  x_440 - x_436 +  x_443 - x_518 = 0
x_444 - x_447 +  x_445 - x_441 +  x_446 - x_366 = 0
x_449 - x_527 +  x_448 - x_452 +  x_450 - x_370 +  x_447 - x_444 = 0
x_452 - x_448 +  x_453 - x_529 +  x_451 - x_371 +  x_454 - x_457 = 0
x_455 - x_374 +  x_456 - x_534 +  x_457 - x_454 = 0
x_458 - x_535 +  x_459 - x_462 +  x_460 - x_379 = 0
x_462 - x_459 +  x_463 - x_537 +  x_464 - x_382 +  x_461 - x_465 = 0
x_468 - x_541 +  x_467 - x_386 +  x_465 - x_461 +  x_466 - x_471 = 0
x_469 - x_387 +  x_470 - x_472 +  x_471 - x_466 = 0
x_472 - x_470 +  x_473 - x_391 +  x_474 - x_542 +  x_475 - x_477 = 0
x_476 - x_395 +  x_478 - x_480 +  x_477 - x_475 = 0
x_479 - x_398 +  x_481 - x_543 +  x_480 - x_478 = 0
x_484 - x_487 +  x_482 - x_404 +  x_483 - x_544 = 0
x_485 - x_408 +  x_488 - x_548 +  x_487 - x_484 +  x_486 - x_491 = 0
x_490 - x_551 +  x_491 - x_486 +  x_489 - x_412 = 0
x_492 - x_416 +  x_494 - x_556 +  x_493 - x_495 = 0
x_495 - x_493 +  x_496 - x_419 +  x_497 - x_499 = 0
x_499 - x_497 +  x_501 - x_503 +  x_500 - x_424 +  x_498 - x_560 = 0
x_502 - x_426 +  x_504 - x_508 +  x_503 - x_501 = 0
x_505 - x_510 +  x_506 - x_429 +  x_507 - x_565 +  x_508 - x_504 = 0
x_509 - x_432 +  x_510 - x_505 - x_589 +  x_511 - x_514 +  x_512 - x_568 = 0
x_516 - x_439 +  x_514 - x_511 +  x_515 - x_572 +  x_513 - x_517 = 0
x_517 - x_513 +  x_520 - x_575 +  x_518 - x_443 +  x_519 - x_523 = 0
x_522 - x_525 +  x_523 - x_519 +  x_521 - x_576 = 0
x_526 - x_530 +  x_527 - x_449 +  x_524 - x_580 +  x_525 - x_522 = 0
x_528 - x_582 +  x_531 - x_532 +  x_530 - x_526 +  x_529 - x_453 = 0
x_533 - x_585 +  x_532 - x_531 +  x_534 - x_456 = 0
x_535 - x_458 +  x_536 - x_539 = 0
x_538 - x_540 +  x_539 - x_536 +  x_537 - x_463 = 0
x_540 - x_538 +  x_541 - x_468 = 0
x_542 - x_474 = 0
x_543 - x_481 = 0
x_544 - x_483 +  x_545 - x_547 = 0
x_547 - x_545 +  x_548 - x_488 +  x_546 - x_550 = 0
x_550 - x_546 +  x_549 - x_553 +  x_551 - x_490 = 0
x_553 - x_549 +  x_552 - x_554 = 0
x_555 - x_558 +  x_556 - x_494 +  x_554 - x_552 = 0
x_557 - x_559 +  x_558 - x_555 = 0
x_561 - x_563 +  x_560 - x_498 +  x_559 - x_557 = 0
x_562 - x_564 +  x_563 - x_561 = 0
x_564 - x_562 +  x_565 - x_507 +  x_566 - x_569 = 0
x_569 - x_566 +  x_568 - x_512 +  x_567 - x_570 = 0
x_570 - x_567 +  x_571 - x_574 +  x_572 - x_515 = 0
x_575 - x_520 +  x_573 - x_577 +  x_574 - x_571 = 0
x_576 - x_521 +  x_578 - x_581 +  x_577 - x_573 = 0
x_580 - x_524 +  x_581 - x_578 +  x_579 - x_583 = 0
x_582 - x_528 +  x_584 - x_586 +  x_583 - x_579 = 0
x_585 - x_533 +  x_586 - x_584 = 0
Bounds
x_1 >= 0
x_2 >= 0
x_3 >= 0
x_4 >= 0
x_5 >= 0
x_6 >= 0
x_7 >= 0
x_8 >= 0
x_9 >= 0
x_10 >= 0
x_11 >= 0
x_12 >= 0
x_13 >= 0
x_14 >= 0
x_15 >= 0
x_16 >= 0
x_17 >= 0
x_18 >= 0
x_19 >= 0
x_20 >= 0
x_21 >= 0
x_22 >= 0
x_23 >= 0
x_24 >= 0
x_25 >= 0
x_26 >= 0
x_27 >= 0
x_28 >= 0
x_29 >= 0
x_30 >= 0
x_31 >= 0
x_32 >= 0
x_33 >= 0
x_34 >= 0
x_35 >= 0
x_36 >= 0
x_37 >= 0
x_38 >= 0
x_39 >= 0
x_40 >= 0
x_41 >= 0
x_42 >= 0
x_43 >= 0
x_44 >= 0
x_45 >= 0
x_46 >= 0
x_47 >= 0
x_48 >= 0
x_49 >= 0
x_50 >= 0
x_51 >= 0
x_52 >= 0
x_53 >= 0
x_54 >= 0
x_55 >= 0
x_56 >= 0
x_57 >= 0
x_58 >= 0
x_59 >= 0
x_60 >= 0
x_61 >= 0
x_62 >= 0
x_63 >= 0
x_64 >= 0
x_65 >= 0
x_66 >= 0
x_67 >= 0
x_68 >= 0
x_69 >= 0
x_70 >= 0
x_71 >= 0
x_72 >= 0
x_73 >= 0
x_74 >= 0
x_75 >= 0
x_76 >= 0
x_77 >= 0
x_78 >= 0
x_79 >= 0
x_80 >= 0
x_81 >= 0
x_82 >= 0
x_83 >= 0
x_84 >= 0
x_85 >= 0
x_86 >= 0
x_87 >= 0
x_88 >= 0
x_89 >= 0
x_90 >= 0
x_91 >= 0
x_92 >= 0
x_93 >= 0
x_94 >= 0
x_95 >= 0
x_96 >= 0
x_97 >= 0
x_98 >= 0
x_99 >= 0
x_100 >= 0
x_101 >= 0
x_102 >= 0
x_103 >= 0
x_104 >= 0
x_105 >= 0
x_106 >= 0
x_107 >= 0
x_108 >= 0
x_109 >= 0
x_110 >= 0
x_111 >= 0
x_112 >= 0
x_113 >= 0
x_114 >= 0
x_115 >= 0
x_116 >= 0
x_117 >= 0
x_118 >= 0
x_119 >= 0
x_120 >= 0
x_121 >= 0
x_122 >= 0
x_123 >= 0
x_124 >= 0
x_125 >= 0
x_126 >= 0
x_127 >= 0
x_128 >= 0
x_129 >= 0
x_130 >= 0
x_131 >= 0
x_132 >= 0
x_133 >= 0
x_134 >= 0
x_135 >= 0
x_136 >= 0
x_137 >= 0
x_138 >= 0
x_139 >= 0
x_140 >= 0
x_141 >= 0
x_142 >= 0
x_143 >= 0
x_144 >= 0
x_145 >= 0
x_146 >= 0
x_147 >= 0
x_148 >= 0
x_149 >= 0
x_150 >= 0
x_151 >= 0
x_152 >= 0
x_153 >= 0
x_154 >= 0
x_155 >= 0
x_156 >= 0
x_157 >= 0
x_158 >= 0
x_159 >= 0
x_160 >= 0
x_161 >= 0
x_162 >= 0
x_163 >= 0
x_164 >= 0
x_165 >= 0
x_166 >= 0
x_167 >= 0
x_168 >= 0
x_169 >= 0
x_170 >= 0
x_171 >= 0
x_172 >= 0
x_173 >= 0
x_174 >= 0
x_175 >= 0
x_176 >= 0
x_177 >= 0
x_178 >= 0
x_179 >= 0
x_180 >= 0
x_181 >= 0
x_182 >= 0
x_183 >= 0
x_184 >= 0
x_185 >= 0
x_186 >= 0
x_187 >= 0
x_188 >= 0
x_189 >= 0
x_190 >= 0
x_191 >= 0
x_192 >= 0
x_193 >= 0
x_194 >= 0
x_195 >= 0
x_196 >= 0
x_197 >= 0
x_198 >= 0
x_199 >= 0
x_200 >= 0
x_201 >= 0
x_202 >= 0
x_203 >= 0
x_204 >= 0
x_205 >= 0
x_206 >= 0
x_207 >= 0
x_208 >= 0
x_209 >= 0
x_210 >= 0
x_211 >= 0
x_212 >= 0
x_213 >= 0
x_214 >= 0
x_215 >= 0
x_216 >= 0
x_217 >= 0
x_218 >= 0
x_219 >= 0
x_220 >= 0
x_221 >= 0
x_222 >= 0
x_223 >= 0
x_224 >= 0
x_225 >= 0
x_226 >= 0
x_227 >= 0
x_228 >= 0
x_229 >= 0
x_230 >= 0
x_231 >= 0
x_232 >= 0
x_233 >= 0
x_234 >= 0
x_235 >= 0
x_236 >= 0
x_237 >= 0
x_238 >= 0
x_239 >= 0
x_240 >= 0
x_241 >= 0
x_242 >= 0
x_243 >= 0
x_244 >= 0
x_245 >= 0
x_246 >= 0
x_247 >= 0
x_248 >= 0
x_249 >= 0
x_250 >= 0
x_251 >= 0
x_252 >= 0
x_253 >= 0
x_254 >= 0
x_255 >= 0
x_256 >= 0
x_257 >= 0
x_258 >= 0
x_259 >= 0
x_260 >= 0
x_261 >= 0
x_262 >= 0
x_263 >= 0
x_264 >= 0
x_265 >= 0
x_266 >= 0
x_267 >= 0
x_268 >= 0
x_269 >= 0
x_270 >= 0
x_271 >= 0
x_272 >= 0
x_273 >= 0
x_274 >= 0
x_275 >= 0
x_276 >= 0
x_277 >= 0
x_278 >= 0
x_279 >= 0
x_280 >= 0
x_281 >= 0
x_282 >= 0
x_283 >= 0
x_284 >= 0
x_285 >= 0
x_286 >= 0
x_287 >= 0
x_288 >= 0
x_289 >= 0
x_290 >= 0
x_291 >= 0
x_292 >= 0
x_293 >= 0
x_294 >= 0
x_295 >= 0
x_296 >= 0
x_297 >= 0
x_298 >= 0
x_299 >= 0
x_300 >= 0
x_301 >= 0
x_302 >= 0
x_303 >= 0
x_304 >= 0
x_305 >= 0
x_306 >= 0
x_307 >= 0
x_308 >= 0
x_309 >= 0
x_310 >= 0
x_311 >= 0
x_312 >= 0
x_313 >= 0
x_314 >= 0
x_315 >= 0
x_316 >= 0
x_317 >= 0
x_318 >= 0
x_319 >= 0
x_320 >= 0
x_321 >= 0
x_322 >= 0
x_323 >= 0
x_324 >= 0
x_325 >= 0
x_326 >= 0
x_327 >= 0
x_328 >= 0
x_329 >= 0
x_330 >= 0
x_331 >= 0
x_332 >= 0
x_333 >= 0
x_334 >= 0
x_335 >= 0
x_336 >= 0
x_337 >= 0
x_338 >= 0
x_339 >= 0
x_340 >= 0
x_341 >= 0
x_342 >= 0
x_343 >= 0
x_344 >= 0
x_345 >= 0
x_346 >= 0
x_347 >= 0
x_348 >= 0
x_349 >= 0
x_350 >= 0
x_351 >= 0
x_352 >= 0
x_353 >= 0
x_354 >= 0
x_355 >= 0
x_356 >= 0
x_357 >= 0
x_358 >= 0
x_359 >= 0
x_360 >= 0
x_361 >= 0
x_362 >= 0
x_363 >= 0
x_364 >= 0
x_365 >= 0
x_366 >= 0
x_367 >= 0
x_368 >= 0
x_369 >= 0
x_370 >= 0
x_371 >= 0
x_372 >= 0
x_373 >= 0
x_374 >= 0
x_375 >= 0
x_376 >= 0
x_377 >= 0
x_378 >= 0
x_379 >= 0
x_380 >= 0
x_381 >= 0
x_382 >= 0
x_383 >= 0
x_384 >= 0
x_385 >= 0
x_386 >= 0
x_387 >= 0
x_388 >= 0
x_389 >= 0
x_390 >= 0
x_391 >= 0
x_392 >= 0
x_393 >= 0
x_394 >= 0
x_395 >= 0
x_396 >= 0
x_397 >= 0
x_398 >= 0
x_399 >= 0
x_400 >= 0
x_401 >= 0
x_402 >= 0
x_403 >= 0
x_404 >= 0
x_405 >= 0
x_406 >= 0
x_407 >= 0
x_408 >= 0
x_409 >= 0
x_410 >= 0
x_411 >= 0
x_412 >= 0
x_413 >= 0
x_414 >= 0
x_415 >= 0
x_416 >= 0
x_417 >= 0
x_418 >= 0
x_419 >= 0
x_420 >= 0
x_421 >= 0
x_422 >= 0
x_423 >= 0
x_424 >= 0
x_425 >= 0
x_426 >= 0
x_427 >= 0
x_428 >= 0
x_429 >= 0
x_430 >= 0
x_431 >= 0
x_432 >= 0
x_433 >= 0
x_434 >= 0
x_435 >= 0
x_436 >= 0
x_437 >= 0
x_438 >= 0
x_439 >= 0
x_440 >= 0
x_441 >= 0
x_442 >= 0
x_443 >= 0
x_444 >= 0
x_445 >= 0
x_446 >= 0
x_447 >= 0
x_448 >= 0
x_449 >= 0
x_450 >= 0
x_451 >= 0
x_452 >= 0
x_453 >= 0
x_454 >= 0
x_455 >= 0
x_456 >= 0
x_457 >= 0
x_458 >= 0
x_459 >= 0
x_460 >= 0
x_461 >= 0
x_462 >= 0
x_463 >= 0
x_464 >= 0
x_465 >= 0
x_466 >= 0
x_467 >= 0
x_468 >= 0
x_469 >= 0
x_470 >= 0
x_471 >= 0
x_472 >= 0
x_473 >= 0
x_474 >= 0
x_475 >= 0
x_476 >= 0
x_477 >= 0
x_478 >= 0
x_479 >= 0
x_480 >= 0
x_481 >= 0
x_482 >= 0
x_483 >= 0
x_484 >= 0
x_485 >= 0
x_486 >= 0
x_487 >= 0
x_488 >= 0
x_489 >= 0
x_490 >= 0
x_491 >= 0
x_492 >= 0
x_493 >= 0
x_494 >= 0
x_495 >= 0
x_496 >= 0
x_497 >= 0
x_498 >= 0
x_499 >= 0
x_500 >= 0
x_501 >= 0
x_502 >= 0
x_503 >= 0
x_504 >= 0
x_505 >= 0
x_506 >= 0
x_507 >= 0
x_508 >= 0
x_509 >= 0
x_510 >= 0
x_511 >= 0
x_512 >= 0
x_513 >= 0
x_514 >= 0
x_515 >= 0
x_516 >= 0
x_517 >= 0
x_518 >= 0
x_519 >= 0
x_520 >= 0
x_521 >= 0
x_522 >= 0
x_523 >= 0
x_524 >= 0
x_525 >= 0
x_526 >= 0
x_527 >= 0
x_528 >= 0
x_529 >= 0
x_530 >= 0
x_531 >= 0
x_532 >= 0
x_533 >= 0
x_534 >= 0
x_535 >= 0
x_536 >= 0
x_537 >= 0
x_538 >= 0
x_539 >= 0
x_540 >= 0
x_541 >= 0
x_542 >= 0
x_543 >= 0
x_544 >= 0
x_545 >= 0
x_546 >= 0
x_547 >= 0
x_548 >= 0
x_549 >= 0
x_550 >= 0
x_551 >= 0
x_552 >= 0
x_553 >= 0
x_554 >= 0
x_555 >= 0
x_556 >= 0
x_557 >= 0
x_558 >= 0
x_559 >= 0
x_560 >= 0
x_561 >= 0
x_562 >= 0
x_563 >= 0
x_564 >= 0
x_565 >= 0
x_566 >= 0
x_567 >= 0
x_568 >= 0
x_569 >= 0
x_570 >= 0
x_571 >= 0
x_572 >= 0
x_573 >= 0
x_574 >= 0
x_575 >= 0
x_576 >= 0
x_577 >= 0
x_578 >= 0
x_579 >= 0
x_580 >= 0
x_581 >= 0
x_582 >= 0
x_583 >= 0
x_584 >= 0
x_585 >= 0
x_586 >= 0
x_587 >= 0
x_588 >= 0
x_589 >= 0
x_590 >= 0
x_591 >= 0
x_592 >= 0
x_593 >= 0
x_594 >= 0
x_595 >= 0
x_596 >= 0
General
Binaries
y_1
y_2
y_3
y_4
y_5
y_6
y_7
y_8
y_9
y_10
y_11
y_12
y_13
y_14
y_15
y_16
y_17
y_18
y_19
y_20
y_21
y_22
y_23
y_24
y_25
y_26
y_27
y_28
y_29
y_30
y_31
y_32
y_33
y_34
y_35
y_36
y_37
y_38
y_39
y_40
y_41
y_42
y_43
y_44
y_45
y_46
y_47
y_48
y_49
y_50
y_51
y_52
y_53
y_54
y_55
y_56
y_57
y_58
y_59
y_60
y_61
y_62
y_63
y_64
y_65
y_66
y_67
y_68
y_69
y_70
y_71
y_72
y_73
y_74
y_75
y_76
y_77
y_78
y_79
y_80
y_81
y_82
y_83
y_84
y_85
y_86
y_87
y_88
y_89
y_90
y_91
y_92
y_93
y_94
y_95
y_96
y_97
y_98
y_99
y_100
y_101
y_102
y_103
y_104
y_105
y_106
y_107
y_108
y_109
y_110
y_111
y_112
y_113
y_114
y_115
y_116
y_117
y_118
y_119
y_120
y_121
y_122
y_123
y_124
y_125
y_126
y_127
y_128
y_129
y_130
y_131
y_132
y_133
y_134
y_135
y_136
y_137
y_138
y_139
y_140
y_141
y_142
y_143
y_144
y_145
y_146
y_147
y_148
y_149
y_150
y_151
y_152
y_153
y_154
y_155
y_156
y_157
y_158
y_159
y_160
y_161
y_162
y_163
y_164
y_165
y_166
y_167
y_168
y_169
y_170
y_171
y_172
y_173
y_174
y_175
y_176
y_177
y_178
y_179
y_180
y_181
y_182
y_183
y_184
y_185
y_186
y_187
y_188
y_189
y_190
y_191
y_192
y_193
y_194
y_195
y_196
y_197
y_198
y_199
y_200
y_201
y_202
y_203
y_204
y_205
y_206
y_207
y_208
y_209
y_210
y_211
y_212
y_213
y_214
y_215
y_216
y_217
y_218
y_219
y_220
y_221
y_222
y_223
y_224
y_225
y_226
y_227
y_228
y_229
y_230
y_231
y_232
y_233
y_234
y_235
y_236
y_237
y_238
y_239
y_240
y_241
y_242
y_243
y_244
y_245
y_246
y_247
y_248
y_249
y_250
y_251
y_252
y_253
y_254
y_255
y_256
y_257
y_258
y_259
y_260
y_261
y_262
y_263
y_264
y_265
y_266
y_267
y_268
y_269
y_270
y_271
y_272
y_273
y_274
y_275
y_276
y_277
y_278
y_279
y_280
y_281
y_282
y_283
y_284
y_285
y_286
y_287
y_288
y_289
y_290
y_291
y_292
y_293
y_294
y_295
y_296
y_297
y_298
y_299
y_300
y_301
y_302
y_303
y_304
y_305
y_306
y_307
y_308
y_309
y_310
y_311
y_312
y_313
y_314
y_315
y_316
y_317
y_318
y_319
y_320
y_321
y_322
y_323
y_324
y_325
y_326
y_327
y_328
y_329
y_330
y_331
y_332
y_333
y_334
y_335
y_336
y_337
y_338
y_339
y_340
y_341
y_342
y_343
y_344
y_345
y_346
y_347
y_348
y_349
y_350
y_351
y_352
y_353
y_354
y_355
y_356
y_357
y_358
y_359
y_360
y_361
y_362
y_363
y_364
y_365
y_366
y_367
y_368
y_369
y_370
y_371
y_372
y_373
y_374
y_375
y_376
y_377
y_378
y_379
y_380
y_381
y_382
y_383
y_384
y_385
y_386
y_387
y_388
y_389
y_390
y_391
y_392
y_393
y_394
y_395
y_396
y_397
y_398
y_399
y_400
y_401
y_402
y_403
y_404
y_405
y_406
y_407
y_408
y_409
y_410
y_411
y_412
y_413
y_414
y_415
y_416
y_417
y_418
y_419
y_420
y_421
y_422
y_423
y_424
y_425
y_426
y_427
y_428
y_429
y_430
y_431
y_432
y_433
y_434
y_435
y_436
y_437
y_438
y_439
y_440
y_441
y_442
y_443
y_444
y_445
y_446
y_447
y_448
y_449
y_450
y_451
y_452
y_453
y_454
y_455
y_456
y_457
y_458
y_459
y_460
y_461
y_462
y_463
y_464
y_465
y_466
y_467
y_468
y_469
y_470
y_471
y_472
y_473
y_474
y_475
y_476
y_477
y_478
y_479
y_480
y_481
y_482
y_483
y_484
y_485
y_486
y_487
y_488
y_489
y_490
y_491
y_492
y_493
y_494
y_495
y_496
y_497
y_498
y_499
y_500
y_501
y_502
y_503
y_504
y_505
y_506
y_507
y_508
y_509
y_510
y_511
y_512
y_513
y_514
y_515
y_516
y_517
y_518
y_519
y_520
y_521
y_522
y_523
y_524
y_525
y_526
y_527
y_528
y_529
y_530
y_531
y_532
y_533
y_534
y_535
y_536
y_537
y_538
y_539
y_540
y_541
y_542
y_543
y_544
y_545
y_546
y_547
y_548
y_549
y_550
y_551
y_552
y_553
y_554
y_555
y_556
y_557
y_558
y_559
y_560
y_561
y_562
y_563
y_564
y_565
y_566
y_567
y_568
y_569
y_570
y_571
y_572
y_573
y_574
y_575
y_576
y_577
y_578
y_579
y_580
y_581
y_582
y_583
y_584
y_585
y_586
End
