data/solutions/exact100kb/instance029.txt
VALUE 245
12 13
13 37
37 61
52 53
53 54
54 55
55 56
56 57
57 58
58 59
59 60
60 61
61 62
73 74
52 74
61 82
89 111
89 90
93 94
73 94
82 103
103 104
104 105
107 130
107 108
108 109
109 110
110 111
105 127
127 128
128 129
129 130
130 152

